-44 6 0
-45 -49 0
d -45 -6 -49 0
-3 -46 -47 -49 0
-44 -48 0
d -44 -6 -48 0
-47 -48 -49 0
-48 -49 0
d -47 -48 -49 0
6 48 0
d 44 6 48 0
3 -49 0
-49 0
7 -6 0
-6 0
2 0
10 0
45 0
48 0
-44 0
40 0
3 0
-7 0
-43 0
-4 0
11 0
26 0
25 0
30 0
47 0
39 0
24 0
17 0
8 0
32 0
33 0
18 0
23 0
0
